NAME: A-n63-k10-C21-V4
TYPE: SoftCluVRP
DIMENSION:  63 
VEHICLES:  4 
GVRP_SETS:  21 
CAPACITY:  100 
EDGE_WEIGHT_TYPE: EUC_2D
NODE_COORD_SECTION 
1 76.000000 75.000000
2 60.000000 14.000000
3 46.000000 5.000000
4 91.000000 14.000000
5 70.000000 95.000000
6 86.000000 31.000000
7 20.000000 0.000000
8 41.000000 55.000000
9 21.000000 15.000000
10 46.000000 1.000000
11 95.000000 45.000000
12 16.000000 89.000000
13 41.000000 1.000000
14 60.000000 94.000000
15 55.000000 25.000000
16 71.000000 41.000000
17 39.000000 35.000000
18 61.000000 70.000000
19 80.000000 36.000000
20 100.000000 26.000000
21 65.000000 85.000000
22 40.000000 51.000000
23 19.000000 71.000000
24 34.000000 50.000000
25 36.000000 61.000000
26 69.000000 50.000000
27 61.000000 94.000000
28 19.000000 11.000000
29 51.000000 91.000000
30 61.000000 54.000000
31 76.000000 90.000000
32 41.000000 75.000000
33 35.000000 100.000000
34 1.000000 40.000000
35 15.000000 91.000000
36 21.000000 11.000000
37 79.000000 81.000000
38 34.000000 36.000000
39 74.000000 99.000000
40 75.000000 14.000000
41 65.000000 54.000000
42 55.000000 10.000000
43 100.000000 6.000000
44 99.000000 91.000000
45 25.000000 86.000000
46 75.000000 16.000000
47 30.000000 45.000000
48 21.000000 85.000000
49 75.000000 80.000000
50 71.000000 35.000000
51 56.000000 81.000000
52 25.000000 76.000000
53 85.000000 76.000000
54 60.000000 34.000000
55 41.000000 44.000000
56 6.000000 55.000000
57 60.000000 54.000000
58 40.000000 96.000000
59 20.000000 71.000000
60 94.000000 45.000000
61 31.000000 41.000000
62 40.000000 49.000000
63 56.000000 80.000000
GVRP_SET_SECTION 
 1 7  9  28  36 -1
 2  44 -1
 3  35  12  45  48 -1
 4  43  4 -1
 5  57  26  30  41 -1
 6  34 -1
 7  2  15  40  42  46 -1
 8  14  5  21  27  29  39 -1
 9  11  60 -1
 10  38  17  47  55  61 -1
 11  32 -1
 12  33  58 -1
 13  37  31  49  53 -1
 14  50  16  54 -1
 15  13  3  10 -1
 16  59  23  52 -1
 17  20 -1
 18  8  22  24  25  62 -1
 19  18  51  63 -1
 20  56 -1
 21  6  19 -1
 DEMAND_SECTION
 1 18 
 2 10 
 3 8 
 4 16 
 5 11 
 6 26 
 7 7 
 8 16 
 9 13 
 10 27 
 11 16 
 12 20 
 13 20 
 14 14 
 15 19 
 16 14 
 17 5 
 18 10 
 19 11 
 20 25 
 21 8 
EOF
